n=6;
m=36;
x=[1, 1, 1, 1, 1, 1, 2, 2, 2, 2, 2, 2, 3, 3, 3, 3, 3, 3, 4, 4, 4, 4, 4, 4, 5, 5, 5, 5, 5, 5, 6, 6, 6, 6, 6, 6];
y=[1, 2, 3, 4, 5, 6, 1, 2, 3, 4, 5, 6, 1, 2, 3, 4, 5, 6, 1, 2, 3, 4, 5, 6, 1, 2, 3, 4, 5, 6, 1, 2, 3, 4, 5, 6];
M=35;
N=40;
xs=[0, 1, 1, 1, 1, 2, 1, 2, 1, 3, 1, 3, 1, 4, 1, 4, 1, 5, 1, 5, 2, 3, 2, 3, 2, 5, 2, 5, 3, 4, 3, 4, 3, 5, 3, 5, 4, 5, 4, 5];
ys=[1, 0, 1, -1, 2, 1, -2, -1, 3, 1, -3, -1, 4, 1, -4, -1, 5, 1, -5, -1, 3, 2, -3, -2, 5, 2, -5, -2, 4, 3, -4, -3, 5, 3, -5, -3, 5, 4, -5, -4];
ks=[5, 5, 5, 5, 2, 2, 2, 2, 1, 1, 1, 1, 1, 1, 1, 1, 1, 1, 1, 1, 1, 1, 1, 1, 1, 1, 1, 1, 1, 1, 1, 1, 1, 1, 1, 1, 1, 1, 1, 1];
r90=[31, 25, 19, 13, 7, 1, 32, 26, 20, 14, 8, 2, 33, 27, 21, 15, 9, 3, 34, 28, 22, 16, 10, 4, 35, 29, 23, 17, 11, 5, 36, 30, 24, 18, 12, 6];
r180=[36, 35, 34, 33, 32, 31, 30, 29, 28, 27, 26, 25, 24, 23, 22, 21, 20, 19, 18, 17, 16, 15, 14, 13, 12, 11, 10, 9, 8, 7, 6, 5, 4, 3, 2, 1];
r270=[6, 12, 18, 24, 30, 36, 5, 11, 17, 23, 29, 35, 4, 10, 16, 22, 28, 34, 3, 9, 15, 21, 27, 33, 2, 8, 14, 20, 26, 32, 1, 7, 13, 19, 25, 31];
reflect=[6, 5, 4, 3, 2, 1, 12, 11, 10, 9, 8, 7, 18, 17, 16, 15, 14, 13, 24, 23, 22, 21, 20, 19, 30, 29, 28, 27, 26, 25, 36, 35, 34, 33, 32, 31];
r180_reflect=[31, 32, 33, 34, 35, 36, 25, 26, 27, 28, 29, 30, 19, 20, 21, 22, 23, 24, 13, 14, 15, 16, 17, 18, 7, 8, 9, 10, 11, 12, 1, 2, 3, 4, 5, 6];
r270_reflect=[36, 30, 24, 18, 12, 6, 35, 29, 23, 17, 11, 5, 34, 28, 22, 16, 10, 4, 33, 27, 21, 15, 9, 3, 32, 26, 20, 14, 8, 2, 31, 25, 19, 13, 7, 1];
d_lb=178;
d_ub=237;